# 6613
param n := 30;
param s := 1;
set E :=  (0,14) (1,2) (2,20) (3,17) (3,29) (4,23) (5,11) (5,23) (6,15) (7,11) (7,28) (8,25) (8,28) (9,13) (9,14) (10,14) (10,19) (10,26) (11,13) (12,17) (13,22) (15,27) (16,21) (16,28) (18,22) (20,28) (23,27) (23,28) (24,27) (26,29);
